(set-logic QF_ABV)

(declare-const __ESBMC_ptr_obj_start_0 (_ BitVec 64))

(declare-const __ESBMC_ptr_obj_end_0 (_ BitVec 64))

(declare-const __ESBMC_ptr_obj_start_1 (_ BitVec 64))

(declare-const __ESBMC_ptr_obj_end_1 (_ BitVec 64))

(declare-const |smt_conv::__ESBMC_ptr_addr_range_0..start0| (_ BitVec 64))

(declare-const |smt_conv::__ESBMC_ptr_addr_range_0..end0| (_ BitVec 64))

(declare-const |smt_conv::__ESBMC_ptr_addr_range_1..start0| (_ BitVec 64))

(declare-const |smt_conv::__ESBMC_ptr_addr_range_1..end0| (_ BitVec 64))

(declare-const |smt_conv::smt_conv::collate_array_vals::3..start0| (_ BitVec 64))

(declare-const |smt_conv::smt_conv::collate_array_vals::3..end0| (_ BitVec 64))

(declare-const |smt_conv::smt_conv::collate_array_vals::4..start0| (_ BitVec 64))

(declare-const |smt_conv::smt_conv::collate_array_vals::4..end0| (_ BitVec 64))

(declare-const |smt_conv::smt_conv::collate_array_vals::7..start0| (_ BitVec 64))

(declare-const |smt_conv::smt_conv::collate_array_vals::7..end0| (_ BitVec 64))

(declare-const |argc'&0#0| (_ BitVec 32))

(declare-const __ESBMC_ptr_obj_start_2 (_ BitVec 64))

(declare-const __ESBMC_ptr_obj_end_2 (_ BitVec 64))

(declare-const |smt_conv::__ESBMC_ptr_addr_range_2..start0| (_ BitVec 64))

(declare-const |smt_conv::__ESBMC_ptr_addr_range_2..end0| (_ BitVec 64))

(declare-const |smt_conv::smt_conv::collate_array_vals::9..start0| (_ BitVec 64))

(declare-const |smt_conv::smt_conv::collate_array_vals::9..end0| (_ BitVec 64))

(declare-const |smt_conv::smt_conv::collate_array_vals::10..start0| (_ BitVec 64))

(declare-const |smt_conv::smt_conv::collate_array_vals::10..end0| (_ BitVec 64))

(declare-const |smt_conv::smt_conv::collate_array_vals::11..start0| (_ BitVec 64))

(declare-const |smt_conv::smt_conv::collate_array_vals::11..end0| (_ BitVec 64))

(declare-const |smt_conv::smt_conv::collate_array_vals::15..start0| (_ BitVec 64))

(declare-const |smt_conv::smt_conv::collate_array_vals::15..end0| (_ BitVec 64))

(declare-const |smt_conv::smt_conv::collate_array_vals::16..start0| (_ BitVec 64))

(declare-const |smt_conv::smt_conv::collate_array_vals::16..end0| (_ BitVec 64))

(declare-const |smt_conv::address_of_str_const(Calling bad()...)..pointer_object0| (_ BitVec 64))

(declare-const |smt_conv::address_of_str_const(Calling bad()...)..pointer_offset0| (_ BitVec 64))

(declare-const |smt_conv::symex::output::4..pointer_object0| (_ BitVec 64))

(declare-const |smt_conv::symex::output::4..pointer_offset0| (_ BitVec 64))

(declare-const |c:@F@getc::$tmp::return_value$_nondet_int$1?1!0&0#1| (_ BitVec 32))

(declare-const |nondet$symex::nondet8| (_ BitVec 32))

(declare-const |c:@F@fgets::$tmp::return_value$_getc$1?1!0&0#1| (_ BitVec 32))

(declare-const |c:io.c@2716@F@fgets@character?1!0&0#1| (_ BitVec 32))

(declare-const |goto_symex::guard?0!0&0#3| (_ BitVec 1))

(declare-const |goto_symex::guard?0!0&0#4| (_ BitVec 1))

(declare-const |c:@F@getc::$tmp::return_value$_nondet_int$1?2!0&0#1| (_ BitVec 32))

(declare-const |nondet$symex::nondet9| (_ BitVec 32))

(declare-const |c:@F@fgets::$tmp::return_value$_getc$1?2!0&0#1| (_ BitVec 32))

(declare-const |c:io.c@2716@F@fgets@character?2!0&0#1| (_ BitVec 32))

(declare-const |goto_symex::guard?0!0&0#5| (_ BitVec 1))

(declare-const |goto_symex::guard?0!0&0#6| (_ BitVec 1))

(declare-const |execution_statet::guard_exec?0!0| (_ BitVec 1))

(declare-const |goto_symex::guard?0!0&0#8| (_ BitVec 1))

(declare-const __ESBMC_ptr_obj_start_3 (_ BitVec 64))

(declare-const __ESBMC_ptr_obj_end_3 (_ BitVec 64))

(declare-const |smt_conv::__ESBMC_ptr_addr_range_3..start0| (_ BitVec 64))

(declare-const |smt_conv::__ESBMC_ptr_addr_range_3..end0| (_ BitVec 64))

(declare-const |smt_conv::smt_conv::collate_array_vals::18..start0| (_ BitVec 64))

(declare-const |smt_conv::smt_conv::collate_array_vals::18..end0| (_ BitVec 64))

(declare-const |smt_conv::smt_conv::collate_array_vals::19..start0| (_ BitVec 64))

(declare-const |smt_conv::smt_conv::collate_array_vals::19..end0| (_ BitVec 64))

(declare-const |smt_conv::smt_conv::collate_array_vals::20..start0| (_ BitVec 64))

(declare-const |smt_conv::smt_conv::collate_array_vals::20..end0| (_ BitVec 64))

(declare-const |smt_conv::smt_conv::collate_array_vals::21..start0| (_ BitVec 64))

(declare-const |smt_conv::smt_conv::collate_array_vals::21..end0| (_ BitVec 64))

(declare-const |smt_conv::smt_conv::collate_array_vals::26..start0| (_ BitVec 64))

(declare-const |smt_conv::smt_conv::collate_array_vals::26..end0| (_ BitVec 64))

(declare-const |smt_conv::smt_conv::collate_array_vals::27..start0| (_ BitVec 64))

(declare-const |smt_conv::smt_conv::collate_array_vals::27..end0| (_ BitVec 64))

(declare-const |smt_conv::smt_conv::collate_array_vals::28..start0| (_ BitVec 64))

(declare-const |smt_conv::smt_conv::collate_array_vals::28..end0| (_ BitVec 64))

(declare-const |smt_conv::c:CWE121_Stack_Based_Buffer_Overflow---s01---CWE121_Stack_Based_Buffer_Overflow__CWE129_fgets_64_bad.i@12905@F@CWE121_Stack_Based_Buffer_Overflow__CWE129_fgets_64_bad@inputBuffer?1!0..pointer_object0| (_ BitVec 64))

(declare-const |smt_conv::c:CWE121_Stack_Based_Buffer_Overflow---s01---CWE121_Stack_Based_Buffer_Overflow__CWE129_fgets_64_bad.i@12905@F@CWE121_Stack_Based_Buffer_Overflow__CWE129_fgets_64_bad@inputBuffer?1!0..pointer_offset0| (_ BitVec 64))

(declare-const |c:CWE121_Stack_Based_Buffer_Overflow---s01---CWE121_Stack_Based_Buffer_Overflow__CWE129_fgets_64_bad.i@12851@F@CWE121_Stack_Based_Buffer_Overflow__CWE129_fgets_64_bad@data?1!0&0#2| (_ BitVec 32))

(declare-const |c:stdlib.c@584@F@atoi@res?1!0&0#0| (_ BitVec 32))

(declare-const __ESBMC_ptr_obj_start_4 (_ BitVec 64))

(declare-const __ESBMC_ptr_obj_end_4 (_ BitVec 64))

(declare-const |smt_conv::__ESBMC_ptr_addr_range_4..start0| (_ BitVec 64))

(declare-const |smt_conv::__ESBMC_ptr_addr_range_4..end0| (_ BitVec 64))

(declare-const |smt_conv::smt_conv::collate_array_vals::30..start0| (_ BitVec 64))

(declare-const |smt_conv::smt_conv::collate_array_vals::30..end0| (_ BitVec 64))

(declare-const |smt_conv::smt_conv::collate_array_vals::31..start0| (_ BitVec 64))

(declare-const |smt_conv::smt_conv::collate_array_vals::31..end0| (_ BitVec 64))

(declare-const |smt_conv::smt_conv::collate_array_vals::32..start0| (_ BitVec 64))

(declare-const |smt_conv::smt_conv::collate_array_vals::32..end0| (_ BitVec 64))

(declare-const |smt_conv::smt_conv::collate_array_vals::33..start0| (_ BitVec 64))

(declare-const |smt_conv::smt_conv::collate_array_vals::33..end0| (_ BitVec 64))

(declare-const |smt_conv::smt_conv::collate_array_vals::34..start0| (_ BitVec 64))

(declare-const |smt_conv::smt_conv::collate_array_vals::34..end0| (_ BitVec 64))

(declare-const |smt_conv::smt_conv::collate_array_vals::40..start0| (_ BitVec 64))

(declare-const |smt_conv::smt_conv::collate_array_vals::40..end0| (_ BitVec 64))

(declare-const |smt_conv::smt_conv::collate_array_vals::41..start0| (_ BitVec 64))

(declare-const |smt_conv::smt_conv::collate_array_vals::41..end0| (_ BitVec 64))

(declare-const |smt_conv::smt_conv::collate_array_vals::42..start0| (_ BitVec 64))

(declare-const |smt_conv::smt_conv::collate_array_vals::42..end0| (_ BitVec 64))

(declare-const |smt_conv::smt_conv::collate_array_vals::43..start0| (_ BitVec 64))

(declare-const |smt_conv::smt_conv::collate_array_vals::43..end0| (_ BitVec 64))

(declare-const |smt_conv::address_of_str_const(fgets() failed.)..pointer_object0| (_ BitVec 64))

(declare-const |smt_conv::address_of_str_const(fgets() failed.)..pointer_offset0| (_ BitVec 64))

(declare-const |smt_conv::symex::output::5..pointer_object0| (_ BitVec 64))

(declare-const |smt_conv::symex::output::5..pointer_offset0| (_ BitVec 64))

(declare-const |c:CWE121_Stack_Based_Buffer_Overflow---s01---CWE121_Stack_Based_Buffer_Overflow__CWE129_fgets_64_bad.i@12851@F@CWE121_Stack_Based_Buffer_Overflow__CWE129_fgets_64_bad@data?1!0&0#4| (_ BitVec 32))

(declare-const |c:CWE121_Stack_Based_Buffer_Overflow---s01---CWE121_Stack_Based_Buffer_Overflow__CWE129_fgets_64_bad.i@12126@F@CWE121_Stack_Based_Buffer_Overflow__CWE129_fgets_64b_badSink@data?1!0&0#1| (_ BitVec 32))

(declare-const |goto_symex::guard?0!0&0#10| (_ BitVec 1))

(declare-const |symex::output::6| (_ BitVec 32))

(declare-const |c:CWE121_Stack_Based_Buffer_Overflow---s01---CWE121_Stack_Based_Buffer_Overflow__CWE129_fgets_64_bad.i@4480@F@printIntLine@intNumber?1!0&0#1| (_ BitVec 32))

(declare-const __ESBMC_ptr_obj_start_5 (_ BitVec 64))

(declare-const __ESBMC_ptr_obj_end_5 (_ BitVec 64))

(declare-const |smt_conv::__ESBMC_ptr_addr_range_5..start0| (_ BitVec 64))

(declare-const |smt_conv::__ESBMC_ptr_addr_range_5..end0| (_ BitVec 64))

(declare-const |smt_conv::smt_conv::collate_array_vals::45..start0| (_ BitVec 64))

(declare-const |smt_conv::smt_conv::collate_array_vals::45..end0| (_ BitVec 64))

(declare-const |smt_conv::smt_conv::collate_array_vals::46..start0| (_ BitVec 64))

(declare-const |smt_conv::smt_conv::collate_array_vals::46..end0| (_ BitVec 64))

(declare-const |smt_conv::smt_conv::collate_array_vals::47..start0| (_ BitVec 64))

(declare-const |smt_conv::smt_conv::collate_array_vals::47..end0| (_ BitVec 64))

(declare-const |smt_conv::smt_conv::collate_array_vals::48..start0| (_ BitVec 64))

(declare-const |smt_conv::smt_conv::collate_array_vals::48..end0| (_ BitVec 64))

(declare-const |smt_conv::smt_conv::collate_array_vals::49..start0| (_ BitVec 64))

(declare-const |smt_conv::smt_conv::collate_array_vals::49..end0| (_ BitVec 64))

(declare-const |smt_conv::smt_conv::collate_array_vals::50..start0| (_ BitVec 64))

(declare-const |smt_conv::smt_conv::collate_array_vals::50..end0| (_ BitVec 64))

(declare-const |smt_conv::smt_conv::collate_array_vals::57..start0| (_ BitVec 64))

(declare-const |smt_conv::smt_conv::collate_array_vals::57..end0| (_ BitVec 64))

(declare-const |smt_conv::smt_conv::collate_array_vals::58..start0| (_ BitVec 64))

(declare-const |smt_conv::smt_conv::collate_array_vals::58..end0| (_ BitVec 64))

(declare-const |smt_conv::smt_conv::collate_array_vals::59..start0| (_ BitVec 64))

(declare-const |smt_conv::smt_conv::collate_array_vals::59..end0| (_ BitVec 64))

(declare-const |smt_conv::smt_conv::collate_array_vals::60..start0| (_ BitVec 64))

(declare-const |smt_conv::smt_conv::collate_array_vals::60..end0| (_ BitVec 64))

(declare-const |smt_conv::smt_conv::collate_array_vals::61..start0| (_ BitVec 64))

(declare-const |smt_conv::smt_conv::collate_array_vals::61..end0| (_ BitVec 64))

(declare-const |smt_conv::address_of_str_const(ERROR: Array index is negative.)..pointer_object0| (_ BitVec 64))

(declare-const |smt_conv::address_of_str_const(ERROR: Array index is negative.)..pointer_offset0| (_ BitVec 64))

(declare-const |smt_conv::symex::output::7..pointer_object0| (_ BitVec 64))

(declare-const |smt_conv::symex::output::7..pointer_offset0| (_ BitVec 64))

(declare-const __ESBMC_ptr_obj_start_6 (_ BitVec 64))

(declare-const __ESBMC_ptr_obj_end_6 (_ BitVec 64))

(declare-const |smt_conv::__ESBMC_ptr_addr_range_6..start0| (_ BitVec 64))

(declare-const |smt_conv::__ESBMC_ptr_addr_range_6..end0| (_ BitVec 64))

(declare-const |smt_conv::smt_conv::collate_array_vals::63..start0| (_ BitVec 64))

(declare-const |smt_conv::smt_conv::collate_array_vals::63..end0| (_ BitVec 64))

(declare-const |smt_conv::smt_conv::collate_array_vals::64..start0| (_ BitVec 64))

(declare-const |smt_conv::smt_conv::collate_array_vals::64..end0| (_ BitVec 64))

(declare-const |smt_conv::smt_conv::collate_array_vals::65..start0| (_ BitVec 64))

(declare-const |smt_conv::smt_conv::collate_array_vals::65..end0| (_ BitVec 64))

(declare-const |smt_conv::smt_conv::collate_array_vals::66..start0| (_ BitVec 64))

(declare-const |smt_conv::smt_conv::collate_array_vals::66..end0| (_ BitVec 64))

(declare-const |smt_conv::smt_conv::collate_array_vals::67..start0| (_ BitVec 64))

(declare-const |smt_conv::smt_conv::collate_array_vals::67..end0| (_ BitVec 64))

(declare-const |smt_conv::smt_conv::collate_array_vals::68..start0| (_ BitVec 64))

(declare-const |smt_conv::smt_conv::collate_array_vals::68..end0| (_ BitVec 64))

(declare-const |smt_conv::smt_conv::collate_array_vals::69..start0| (_ BitVec 64))

(declare-const |smt_conv::smt_conv::collate_array_vals::69..end0| (_ BitVec 64))

(declare-const |smt_conv::smt_conv::collate_array_vals::77..start0| (_ BitVec 64))

(declare-const |smt_conv::smt_conv::collate_array_vals::77..end0| (_ BitVec 64))

(declare-const |smt_conv::smt_conv::collate_array_vals::78..start0| (_ BitVec 64))

(declare-const |smt_conv::smt_conv::collate_array_vals::78..end0| (_ BitVec 64))

(declare-const |smt_conv::smt_conv::collate_array_vals::79..start0| (_ BitVec 64))

(declare-const |smt_conv::smt_conv::collate_array_vals::79..end0| (_ BitVec 64))

(declare-const |smt_conv::smt_conv::collate_array_vals::80..start0| (_ BitVec 64))

(declare-const |smt_conv::smt_conv::collate_array_vals::80..end0| (_ BitVec 64))

(declare-const |smt_conv::smt_conv::collate_array_vals::81..start0| (_ BitVec 64))

(declare-const |smt_conv::smt_conv::collate_array_vals::81..end0| (_ BitVec 64))

(declare-const |smt_conv::smt_conv::collate_array_vals::82..start0| (_ BitVec 64))

(declare-const |smt_conv::smt_conv::collate_array_vals::82..end0| (_ BitVec 64))

(declare-const |smt_conv::address_of_str_const(Finished bad())..pointer_object0| (_ BitVec 64))

(declare-const |smt_conv::address_of_str_const(Finished bad())..pointer_offset0| (_ BitVec 64))

(declare-const |smt_conv::symex::output::8..pointer_object0| (_ BitVec 64))

(declare-const |smt_conv::symex::output::8..pointer_offset0| (_ BitVec 64))

(declare-const |__ESBMC_is_dynamic&0#1| (Array (_ BitVec 64) (_ BitVec 1)))

(define-fun $e1 () Bool 

 (and 

  (not 

   (bvslt #b01111111111111111111111111111110 |argc'&0#0|)) 

  (not 

   (bvslt |argc'&0#0| #b00000000000000000000000000000001))))

(assert 

 (= __ESBMC_ptr_obj_start_0 #b0000000000000000000000000000000000000000000000000000000000000000))

(assert 

 (= #b0000000000000000000000000000000000000000000000000000000000000000 __ESBMC_ptr_obj_end_0))

(assert 

 (= __ESBMC_ptr_obj_start_1 #b0000000000000000000000000000000000000000000000000000000000000001))

(assert 

 (= #b1111111111111111111111111111111111111111111111111111111111111111 __ESBMC_ptr_obj_end_1))

(assert 

 (= __ESBMC_ptr_obj_end_0 |smt_conv::__ESBMC_ptr_addr_range_0..end0|))

(assert 

 (= __ESBMC_ptr_obj_start_0 |smt_conv::__ESBMC_ptr_addr_range_0..start0|))

(assert 

 (= __ESBMC_ptr_obj_end_1 |smt_conv::__ESBMC_ptr_addr_range_1..end0|))

(assert 

 (= __ESBMC_ptr_obj_start_1 |smt_conv::__ESBMC_ptr_addr_range_1..start0|))

(assert 

 (= |smt_conv::smt_conv::collate_array_vals::3..end0| |smt_conv::smt_conv::collate_array_vals::4..end0|))

(assert 

 (= |smt_conv::smt_conv::collate_array_vals::3..start0| |smt_conv::smt_conv::collate_array_vals::4..start0|))

(assert 

 (= __ESBMC_ptr_obj_end_0 |smt_conv::smt_conv::collate_array_vals::7..end0|))

(assert 

 (= __ESBMC_ptr_obj_start_0 |smt_conv::smt_conv::collate_array_vals::7..start0|))

(assert 

 (= 

  (bvadd __ESBMC_ptr_obj_start_2 #b0000000000000000000000000000000000000000000000000000000000010001) __ESBMC_ptr_obj_end_2))

(assert 

 (bvult __ESBMC_ptr_obj_start_2 __ESBMC_ptr_obj_end_2))

(assert 

 (not 

  (and 

   (not 

    (bvult __ESBMC_ptr_obj_end_0 __ESBMC_ptr_obj_start_2)) 

   (not 

    (bvult __ESBMC_ptr_obj_end_2 __ESBMC_ptr_obj_start_0)))))

(assert 

 (= __ESBMC_ptr_obj_end_2 |smt_conv::__ESBMC_ptr_addr_range_2..end0|))

(assert 

 (= __ESBMC_ptr_obj_start_2 |smt_conv::__ESBMC_ptr_addr_range_2..start0|))

(assert 

 (= |smt_conv::smt_conv::collate_array_vals::9..end0| |smt_conv::smt_conv::collate_array_vals::10..end0|))

(assert 

 (= |smt_conv::smt_conv::collate_array_vals::9..start0| |smt_conv::smt_conv::collate_array_vals::10..start0|))

(assert 

 (= |smt_conv::smt_conv::collate_array_vals::10..end0| |smt_conv::smt_conv::collate_array_vals::11..end0|))

(assert 

 (= |smt_conv::smt_conv::collate_array_vals::10..start0| |smt_conv::smt_conv::collate_array_vals::11..start0|))

(assert 

 (= |smt_conv::smt_conv::collate_array_vals::7..end0| |smt_conv::smt_conv::collate_array_vals::15..end0|))

(assert 

 (= |smt_conv::smt_conv::collate_array_vals::7..start0| |smt_conv::smt_conv::collate_array_vals::15..start0|))

(assert 

 (= __ESBMC_ptr_obj_end_1 |smt_conv::smt_conv::collate_array_vals::16..end0|))

(assert 

 (= __ESBMC_ptr_obj_start_1 |smt_conv::smt_conv::collate_array_vals::16..start0|))

(assert (= 

 (bvnot 

  (select |__ESBMC_is_dynamic&0#1| #b0000000000000000000000000000000000000000000000000000000000000010)) #b1))

(assert 

 (= #b0000000000000000000000000000000000000000000000000000000000000000 |smt_conv::address_of_str_const(Calling bad()...)..pointer_offset0|))

(assert 

 (= #b0000000000000000000000000000000000000000000000000000000000000010 |smt_conv::address_of_str_const(Calling bad()...)..pointer_object0|))

(assert 

 (= #b0000000000000000000000000000000000000000000000000000000000000000 |smt_conv::symex::output::4..pointer_offset0|))

(assert 

 (= |smt_conv::address_of_str_const(Calling bad()...)..pointer_object0| |smt_conv::symex::output::4..pointer_object0|))

(assert 

 (= |c:@F@getc::$tmp::return_value$_nondet_int$1?1!0&0#1| |nondet$symex::nondet8|))

(assert 

 (= |c:@F@getc::$tmp::return_value$_nondet_int$1?1!0&0#1| |c:@F@fgets::$tmp::return_value$_getc$1?1!0&0#1|))

(assert 

 (= |c:@F@fgets::$tmp::return_value$_getc$1?1!0&0#1| |c:io.c@2716@F@fgets@character?1!0&0#1|))

(assert 

 (= |goto_symex::guard?0!0&0#3| 

  (ite 

   (= |c:io.c@2716@F@fgets@character?1!0&0#1| #b00000000000000000000000000001010) #b1 #b0)))

(assert 

 (= |goto_symex::guard?0!0&0#4| 

  (ite 

   (= #b11111111111111111111111111111111 |c:io.c@2716@F@fgets@character?1!0&0#1|) #b1 #b0)))

(assert 

 (= |c:@F@getc::$tmp::return_value$_nondet_int$1?2!0&0#1| |nondet$symex::nondet9|))

(assert 

 (= |c:@F@getc::$tmp::return_value$_nondet_int$1?2!0&0#1| |c:@F@fgets::$tmp::return_value$_getc$1?2!0&0#1|))

(assert 

 (= |c:@F@fgets::$tmp::return_value$_getc$1?2!0&0#1| |c:io.c@2716@F@fgets@character?2!0&0#1|))

(assert 

 (= |goto_symex::guard?0!0&0#5| 

  (ite 

   (= #b00000000000000000000000000001010 |c:io.c@2716@F@fgets@character?2!0&0#1|) #b1 #b0)))

(assert 

 (= |goto_symex::guard?0!0&0#6| 

  (ite 

   (= #b11111111111111111111111111111111 |c:io.c@2716@F@fgets@character?2!0&0#1|) #b1 #b0)))

(assert 

 (= 

  (bvadd __ESBMC_ptr_obj_start_3 #b0000000000000000000000000000000000000000000000000000000000001110) __ESBMC_ptr_obj_end_3))

(assert 

 (bvult __ESBMC_ptr_obj_start_3 __ESBMC_ptr_obj_end_3))

(assert 

 (not 

  (and 

   (not 

    (bvult __ESBMC_ptr_obj_end_0 __ESBMC_ptr_obj_start_3)) 

   (not 

    (bvult __ESBMC_ptr_obj_end_3 __ESBMC_ptr_obj_start_0)))))

(assert 

 (not 

  (and 

   (not 

    (bvult __ESBMC_ptr_obj_end_2 __ESBMC_ptr_obj_start_3)) 

   (not 

    (bvult __ESBMC_ptr_obj_end_3 __ESBMC_ptr_obj_start_2)))))

(assert 

 (= __ESBMC_ptr_obj_end_3 |smt_conv::__ESBMC_ptr_addr_range_3..end0|))

(assert 

 (= __ESBMC_ptr_obj_start_3 |smt_conv::__ESBMC_ptr_addr_range_3..start0|))

(assert 

 (= |smt_conv::smt_conv::collate_array_vals::18..end0| |smt_conv::smt_conv::collate_array_vals::19..end0|))

(assert 

 (= |smt_conv::smt_conv::collate_array_vals::18..start0| |smt_conv::smt_conv::collate_array_vals::19..start0|))

(assert 

 (= |smt_conv::smt_conv::collate_array_vals::19..end0| |smt_conv::smt_conv::collate_array_vals::20..end0|))

(assert 

 (= |smt_conv::smt_conv::collate_array_vals::19..start0| |smt_conv::smt_conv::collate_array_vals::20..start0|))

(assert 

 (= |smt_conv::smt_conv::collate_array_vals::20..end0| |smt_conv::smt_conv::collate_array_vals::21..end0|))

(assert 

 (= |smt_conv::smt_conv::collate_array_vals::20..start0| |smt_conv::smt_conv::collate_array_vals::21..start0|))

(assert 

 (= |smt_conv::smt_conv::collate_array_vals::15..end0| |smt_conv::smt_conv::collate_array_vals::26..end0|))

(assert 

 (= |smt_conv::smt_conv::collate_array_vals::15..start0| |smt_conv::smt_conv::collate_array_vals::26..start0|))

(assert 

 (= |smt_conv::smt_conv::collate_array_vals::16..end0| |smt_conv::smt_conv::collate_array_vals::27..end0|))

(assert 

 (= |smt_conv::smt_conv::collate_array_vals::16..start0| |smt_conv::smt_conv::collate_array_vals::27..start0|))

(assert 

 (= __ESBMC_ptr_obj_end_2 |smt_conv::smt_conv::collate_array_vals::28..end0|))

(assert 

 (= __ESBMC_ptr_obj_start_2 |smt_conv::smt_conv::collate_array_vals::28..start0|))

(assert (= 

 (bvnot 

  (select |__ESBMC_is_dynamic&0#1| #b0000000000000000000000000000000000000000000000000000000000000011)) #b1))

(assert 

 (= #b0000000000000000000000000000000000000000000000000000000000000000 |smt_conv::c:CWE121_Stack_Based_Buffer_Overflow---s01---CWE121_Stack_Based_Buffer_Overflow__CWE129_fgets_64_bad.i@12905@F@CWE121_Stack_Based_Buffer_Overflow__CWE129_fgets_64_bad@inputBuffer?1!0..pointer_offset0|))

(assert 

 (= #b0000000000000000000000000000000000000000000000000000000000000011 |smt_conv::c:CWE121_Stack_Based_Buffer_Overflow---s01---CWE121_Stack_Based_Buffer_Overflow__CWE129_fgets_64_bad.i@12905@F@CWE121_Stack_Based_Buffer_Overflow__CWE129_fgets_64_bad@inputBuffer?1!0..pointer_object0|))

(assert 

 (= |goto_symex::guard?0!0&0#8| 

  (bvnot 

   (ite 

    (= #b0000000000000000000000000000000000000000000000000000000000000000 |smt_conv::c:CWE121_Stack_Based_Buffer_Overflow---s01---CWE121_Stack_Based_Buffer_Overflow__CWE129_fgets_64_bad.i@12905@F@CWE121_Stack_Based_Buffer_Overflow__CWE129_fgets_64_bad@inputBuffer?1!0..pointer_object0|) #b1 #b0))))

(assert 

 (= |c:CWE121_Stack_Based_Buffer_Overflow---s01---CWE121_Stack_Based_Buffer_Overflow__CWE129_fgets_64_bad.i@12851@F@CWE121_Stack_Based_Buffer_Overflow__CWE129_fgets_64_bad@data?1!0&0#2| |c:stdlib.c@584@F@atoi@res?1!0&0#0|))

(assert 

 (= 

  (bvadd __ESBMC_ptr_obj_start_4 #b0000000000000000000000000000000000000000000000000000000000010000) __ESBMC_ptr_obj_end_4))

(assert 

 (bvult __ESBMC_ptr_obj_start_4 __ESBMC_ptr_obj_end_4))

(assert 

 (not 

  (and 

   (not 

    (bvult __ESBMC_ptr_obj_end_0 __ESBMC_ptr_obj_start_4)) 

   (not 

    (bvult __ESBMC_ptr_obj_end_4 __ESBMC_ptr_obj_start_0)))))

(assert 

 (not 

  (and 

   (not 

    (bvult __ESBMC_ptr_obj_end_2 __ESBMC_ptr_obj_start_4)) 

   (not 

    (bvult __ESBMC_ptr_obj_end_4 __ESBMC_ptr_obj_start_2)))))

(assert 

 (not 

  (and 

   (not 

    (bvult __ESBMC_ptr_obj_end_3 __ESBMC_ptr_obj_start_4)) 

   (not 

    (bvult __ESBMC_ptr_obj_end_4 __ESBMC_ptr_obj_start_3)))))

(assert 

 (= __ESBMC_ptr_obj_end_4 |smt_conv::__ESBMC_ptr_addr_range_4..end0|))

(assert 

 (= __ESBMC_ptr_obj_start_4 |smt_conv::__ESBMC_ptr_addr_range_4..start0|))

(assert 

 (= |smt_conv::smt_conv::collate_array_vals::30..end0| |smt_conv::smt_conv::collate_array_vals::31..end0|))

(assert 

 (= |smt_conv::smt_conv::collate_array_vals::30..start0| |smt_conv::smt_conv::collate_array_vals::31..start0|))

(assert 

 (= |smt_conv::smt_conv::collate_array_vals::31..end0| |smt_conv::smt_conv::collate_array_vals::32..end0|))

(assert 

 (= |smt_conv::smt_conv::collate_array_vals::31..start0| |smt_conv::smt_conv::collate_array_vals::32..start0|))

(assert 

 (= |smt_conv::smt_conv::collate_array_vals::32..end0| |smt_conv::smt_conv::collate_array_vals::33..end0|))

(assert 

 (= |smt_conv::smt_conv::collate_array_vals::32..start0| |smt_conv::smt_conv::collate_array_vals::33..start0|))

(assert 

 (= |smt_conv::smt_conv::collate_array_vals::33..end0| |smt_conv::smt_conv::collate_array_vals::34..end0|))

(assert 

 (= |smt_conv::smt_conv::collate_array_vals::33..start0| |smt_conv::smt_conv::collate_array_vals::34..start0|))

(assert 

 (= |smt_conv::smt_conv::collate_array_vals::26..end0| |smt_conv::smt_conv::collate_array_vals::40..end0|))

(assert 

 (= |smt_conv::smt_conv::collate_array_vals::26..start0| |smt_conv::smt_conv::collate_array_vals::40..start0|))

(assert 

 (= |smt_conv::smt_conv::collate_array_vals::27..end0| |smt_conv::smt_conv::collate_array_vals::41..end0|))

(assert 

 (= |smt_conv::smt_conv::collate_array_vals::27..start0| |smt_conv::smt_conv::collate_array_vals::41..start0|))

(assert 

 (= |smt_conv::smt_conv::collate_array_vals::28..end0| |smt_conv::smt_conv::collate_array_vals::42..end0|))

(assert 

 (= |smt_conv::smt_conv::collate_array_vals::28..start0| |smt_conv::smt_conv::collate_array_vals::42..start0|))

(assert 

 (= __ESBMC_ptr_obj_end_3 |smt_conv::smt_conv::collate_array_vals::43..end0|))

(assert 

 (= __ESBMC_ptr_obj_start_3 |smt_conv::smt_conv::collate_array_vals::43..start0|))

(assert (= 

 (bvnot 

  (select |__ESBMC_is_dynamic&0#1| #b0000000000000000000000000000000000000000000000000000000000000100)) #b1))

(assert 

 (= #b0000000000000000000000000000000000000000000000000000000000000000 |smt_conv::address_of_str_const(fgets() failed.)..pointer_offset0|))

(assert 

 (= #b0000000000000000000000000000000000000000000000000000000000000100 |smt_conv::address_of_str_const(fgets() failed.)..pointer_object0|))

(assert 

 (= #b0000000000000000000000000000000000000000000000000000000000000000 |smt_conv::symex::output::5..pointer_offset0|))

(assert 

 (= |smt_conv::address_of_str_const(fgets() failed.)..pointer_object0| |smt_conv::symex::output::5..pointer_object0|))

(assert 

 (= |c:CWE121_Stack_Based_Buffer_Overflow---s01---CWE121_Stack_Based_Buffer_Overflow__CWE129_fgets_64_bad.i@12851@F@CWE121_Stack_Based_Buffer_Overflow__CWE129_fgets_64_bad@data?1!0&0#4| 

  (ite 

   (= #b1 |goto_symex::guard?0!0&0#8|) |c:CWE121_Stack_Based_Buffer_Overflow---s01---CWE121_Stack_Based_Buffer_Overflow__CWE129_fgets_64_bad.i@12851@F@CWE121_Stack_Based_Buffer_Overflow__CWE129_fgets_64_bad@data?1!0&0#2| #b11111111111111111111111111111111)))

(assert 

 (= |c:CWE121_Stack_Based_Buffer_Overflow---s01---CWE121_Stack_Based_Buffer_Overflow__CWE129_fgets_64_bad.i@12851@F@CWE121_Stack_Based_Buffer_Overflow__CWE129_fgets_64_bad@data?1!0&0#4| |c:CWE121_Stack_Based_Buffer_Overflow---s01---CWE121_Stack_Based_Buffer_Overflow__CWE129_fgets_64_bad.i@12126@F@CWE121_Stack_Based_Buffer_Overflow__CWE129_fgets_64b_badSink@data?1!0&0#1|))

(assert 

 (= |goto_symex::guard?0!0&0#10| 

  (bvnot 

   (ite 

    (bvslt |c:CWE121_Stack_Based_Buffer_Overflow---s01---CWE121_Stack_Based_Buffer_Overflow__CWE129_fgets_64_bad.i@12126@F@CWE121_Stack_Based_Buffer_Overflow__CWE129_fgets_64b_badSink@data?1!0&0#1| #b00000000000000000000000000000000) #b1 #b0))))

(assert 

 (= |symex::output::6| |c:CWE121_Stack_Based_Buffer_Overflow---s01---CWE121_Stack_Based_Buffer_Overflow__CWE129_fgets_64_bad.i@4480@F@printIntLine@intNumber?1!0&0#1|))

(assert 

 (= 

  (bvadd __ESBMC_ptr_obj_start_5 #b0000000000000000000000000000000000000000000000000000000000100000) __ESBMC_ptr_obj_end_5))

(assert 

 (bvult __ESBMC_ptr_obj_start_5 __ESBMC_ptr_obj_end_5))

(assert 

 (not 

  (and 

   (not 

    (bvult __ESBMC_ptr_obj_end_0 __ESBMC_ptr_obj_start_5)) 

   (not 

    (bvult __ESBMC_ptr_obj_end_5 __ESBMC_ptr_obj_start_0)))))

(assert 

 (not 

  (and 

   (not 

    (bvult __ESBMC_ptr_obj_end_2 __ESBMC_ptr_obj_start_5)) 

   (not 

    (bvult __ESBMC_ptr_obj_end_5 __ESBMC_ptr_obj_start_2)))))

(assert 

 (not 

  (and 

   (not 

    (bvult __ESBMC_ptr_obj_end_3 __ESBMC_ptr_obj_start_5)) 

   (not 

    (bvult __ESBMC_ptr_obj_end_5 __ESBMC_ptr_obj_start_3)))))

(assert 

 (not 

  (and 

   (not 

    (bvult __ESBMC_ptr_obj_end_4 __ESBMC_ptr_obj_start_5)) 

   (not 

    (bvult __ESBMC_ptr_obj_end_5 __ESBMC_ptr_obj_start_4)))))

(assert 

 (= __ESBMC_ptr_obj_end_5 |smt_conv::__ESBMC_ptr_addr_range_5..end0|))

(assert 

 (= __ESBMC_ptr_obj_start_5 |smt_conv::__ESBMC_ptr_addr_range_5..start0|))

(assert 

 (= |smt_conv::smt_conv::collate_array_vals::45..end0| |smt_conv::smt_conv::collate_array_vals::46..end0|))

(assert 

 (= |smt_conv::smt_conv::collate_array_vals::45..start0| |smt_conv::smt_conv::collate_array_vals::46..start0|))

(assert 

 (= |smt_conv::smt_conv::collate_array_vals::46..end0| |smt_conv::smt_conv::collate_array_vals::47..end0|))

(assert 

 (= |smt_conv::smt_conv::collate_array_vals::46..start0| |smt_conv::smt_conv::collate_array_vals::47..start0|))

(assert 

 (= |smt_conv::smt_conv::collate_array_vals::47..end0| |smt_conv::smt_conv::collate_array_vals::48..end0|))

(assert 

 (= |smt_conv::smt_conv::collate_array_vals::47..start0| |smt_conv::smt_conv::collate_array_vals::48..start0|))

(assert 

 (= |smt_conv::smt_conv::collate_array_vals::48..end0| |smt_conv::smt_conv::collate_array_vals::49..end0|))

(assert 

 (= |smt_conv::smt_conv::collate_array_vals::48..start0| |smt_conv::smt_conv::collate_array_vals::49..start0|))

(assert 

 (= |smt_conv::smt_conv::collate_array_vals::49..end0| |smt_conv::smt_conv::collate_array_vals::50..end0|))

(assert 

 (= |smt_conv::smt_conv::collate_array_vals::49..start0| |smt_conv::smt_conv::collate_array_vals::50..start0|))

(assert 

 (= |smt_conv::smt_conv::collate_array_vals::40..end0| |smt_conv::smt_conv::collate_array_vals::57..end0|))

(assert 

 (= |smt_conv::smt_conv::collate_array_vals::40..start0| |smt_conv::smt_conv::collate_array_vals::57..start0|))

(assert 

 (= |smt_conv::smt_conv::collate_array_vals::41..end0| |smt_conv::smt_conv::collate_array_vals::58..end0|))

(assert 

 (= |smt_conv::smt_conv::collate_array_vals::41..start0| |smt_conv::smt_conv::collate_array_vals::58..start0|))

(assert 

 (= |smt_conv::smt_conv::collate_array_vals::42..end0| |smt_conv::smt_conv::collate_array_vals::59..end0|))

(assert 

 (= |smt_conv::smt_conv::collate_array_vals::42..start0| |smt_conv::smt_conv::collate_array_vals::59..start0|))

(assert 

 (= |smt_conv::smt_conv::collate_array_vals::43..end0| |smt_conv::smt_conv::collate_array_vals::60..end0|))

(assert 

 (= |smt_conv::smt_conv::collate_array_vals::43..start0| |smt_conv::smt_conv::collate_array_vals::60..start0|))

(assert 

 (= __ESBMC_ptr_obj_end_4 |smt_conv::smt_conv::collate_array_vals::61..end0|))

(assert 

 (= __ESBMC_ptr_obj_start_4 |smt_conv::smt_conv::collate_array_vals::61..start0|))

(assert (= 

 (bvnot 

  (select |__ESBMC_is_dynamic&0#1| #b0000000000000000000000000000000000000000000000000000000000000101)) #b1))

(assert 

 (= #b0000000000000000000000000000000000000000000000000000000000000000 |smt_conv::address_of_str_const(ERROR: Array index is negative.)..pointer_offset0|))

(assert 

 (= #b0000000000000000000000000000000000000000000000000000000000000101 |smt_conv::address_of_str_const(ERROR: Array index is negative.)..pointer_object0|))

(assert 

 (= #b0000000000000000000000000000000000000000000000000000000000000000 |smt_conv::symex::output::7..pointer_offset0|))

(assert 

 (= |smt_conv::address_of_str_const(ERROR: Array index is negative.)..pointer_object0| |smt_conv::symex::output::7..pointer_object0|))

(assert 

 (= 

  (bvadd __ESBMC_ptr_obj_start_6 #b0000000000000000000000000000000000000000000000000000000000001111) __ESBMC_ptr_obj_end_6))

(assert 

 (bvult __ESBMC_ptr_obj_start_6 __ESBMC_ptr_obj_end_6))

(assert 

 (not 

  (and 

   (not 

    (bvult __ESBMC_ptr_obj_end_0 __ESBMC_ptr_obj_start_6)) 

   (not 

    (bvult __ESBMC_ptr_obj_end_6 __ESBMC_ptr_obj_start_0)))))

(assert 

 (not 

  (and 

   (not 

    (bvult __ESBMC_ptr_obj_end_2 __ESBMC_ptr_obj_start_6)) 

   (not 

    (bvult __ESBMC_ptr_obj_end_6 __ESBMC_ptr_obj_start_2)))))

(assert 

 (not 

  (and 

   (not 

    (bvult __ESBMC_ptr_obj_end_3 __ESBMC_ptr_obj_start_6)) 

   (not 

    (bvult __ESBMC_ptr_obj_end_6 __ESBMC_ptr_obj_start_3)))))

(assert 

 (not 

  (and 

   (not 

    (bvult __ESBMC_ptr_obj_end_4 __ESBMC_ptr_obj_start_6)) 

   (not 

    (bvult __ESBMC_ptr_obj_end_6 __ESBMC_ptr_obj_start_4)))))

(assert 

 (not 

  (and 

   (not 

    (bvult __ESBMC_ptr_obj_end_5 __ESBMC_ptr_obj_start_6)) 

   (not 

    (bvult __ESBMC_ptr_obj_end_6 __ESBMC_ptr_obj_start_5)))))

(assert 

 (= __ESBMC_ptr_obj_end_6 |smt_conv::__ESBMC_ptr_addr_range_6..end0|))

(assert 

 (= __ESBMC_ptr_obj_start_6 |smt_conv::__ESBMC_ptr_addr_range_6..start0|))

(assert 

 (= |smt_conv::smt_conv::collate_array_vals::63..end0| |smt_conv::smt_conv::collate_array_vals::64..end0|))

(assert 

 (= |smt_conv::smt_conv::collate_array_vals::63..start0| |smt_conv::smt_conv::collate_array_vals::64..start0|))

(assert 

 (= |smt_conv::smt_conv::collate_array_vals::64..end0| |smt_conv::smt_conv::collate_array_vals::65..end0|))

(assert 

 (= |smt_conv::smt_conv::collate_array_vals::64..start0| |smt_conv::smt_conv::collate_array_vals::65..start0|))

(assert 

 (= |smt_conv::smt_conv::collate_array_vals::65..end0| |smt_conv::smt_conv::collate_array_vals::66..end0|))

(assert 

 (= |smt_conv::smt_conv::collate_array_vals::65..start0| |smt_conv::smt_conv::collate_array_vals::66..start0|))

(assert 

 (= |smt_conv::smt_conv::collate_array_vals::66..end0| |smt_conv::smt_conv::collate_array_vals::67..end0|))

(assert 

 (= |smt_conv::smt_conv::collate_array_vals::66..start0| |smt_conv::smt_conv::collate_array_vals::67..start0|))

(assert 

 (= |smt_conv::smt_conv::collate_array_vals::67..end0| |smt_conv::smt_conv::collate_array_vals::68..end0|))

(assert 

 (= |smt_conv::smt_conv::collate_array_vals::67..start0| |smt_conv::smt_conv::collate_array_vals::68..start0|))

(assert 

 (= |smt_conv::smt_conv::collate_array_vals::68..end0| |smt_conv::smt_conv::collate_array_vals::69..end0|))

(assert 

 (= |smt_conv::smt_conv::collate_array_vals::68..start0| |smt_conv::smt_conv::collate_array_vals::69..start0|))

(assert 

 (= |smt_conv::smt_conv::collate_array_vals::57..end0| |smt_conv::smt_conv::collate_array_vals::77..end0|))

(assert 

 (= |smt_conv::smt_conv::collate_array_vals::57..start0| |smt_conv::smt_conv::collate_array_vals::77..start0|))

(assert 

 (= |smt_conv::smt_conv::collate_array_vals::58..end0| |smt_conv::smt_conv::collate_array_vals::78..end0|))

(assert 

 (= |smt_conv::smt_conv::collate_array_vals::58..start0| |smt_conv::smt_conv::collate_array_vals::78..start0|))

(assert 

 (= |smt_conv::smt_conv::collate_array_vals::59..end0| |smt_conv::smt_conv::collate_array_vals::79..end0|))

(assert 

 (= |smt_conv::smt_conv::collate_array_vals::59..start0| |smt_conv::smt_conv::collate_array_vals::79..start0|))

(assert 

 (= |smt_conv::smt_conv::collate_array_vals::60..end0| |smt_conv::smt_conv::collate_array_vals::80..end0|))

(assert 

 (= |smt_conv::smt_conv::collate_array_vals::60..start0| |smt_conv::smt_conv::collate_array_vals::80..start0|))

(assert 

 (= |smt_conv::smt_conv::collate_array_vals::61..end0| |smt_conv::smt_conv::collate_array_vals::81..end0|))

(assert 

 (= |smt_conv::smt_conv::collate_array_vals::61..start0| |smt_conv::smt_conv::collate_array_vals::81..start0|))

(assert 

 (= __ESBMC_ptr_obj_end_5 |smt_conv::smt_conv::collate_array_vals::82..end0|))

(assert 

 (= __ESBMC_ptr_obj_start_5 |smt_conv::smt_conv::collate_array_vals::82..start0|))

(assert (= 

 (bvnot 

  (select |__ESBMC_is_dynamic&0#1| #b0000000000000000000000000000000000000000000000000000000000000110)) #b1))

(assert 

 (= #b0000000000000000000000000000000000000000000000000000000000000000 |smt_conv::address_of_str_const(Finished bad())..pointer_offset0|))

(assert 

 (= #b0000000000000000000000000000000000000000000000000000000000000110 |smt_conv::address_of_str_const(Finished bad())..pointer_object0|))

(assert 

 (= #b0000000000000000000000000000000000000000000000000000000000000000 |smt_conv::symex::output::8..pointer_offset0|))

(assert 

 (= |smt_conv::address_of_str_const(Finished bad())..pointer_object0| |smt_conv::symex::output::8..pointer_object0|))

(assert (= 

 (bvnot 

  (bvand 

   (bvnot 

    (bvand 

     (ite $e1 #b1 #b0) 

     (bvand 

      (bvand 

       (bvnot |goto_symex::guard?0!0&0#6|) 

       (bvand 

        (bvand 

         (bvnot |goto_symex::guard?0!0&0#3|) 

         (bvnot |goto_symex::guard?0!0&0#4|)) 

        (bvnot |goto_symex::guard?0!0&0#5|))) |execution_statet::guard_exec?0!0|))) 

   (bvnot 

    (bvand 

     (ite $e1 #b1 #b0) 

     (bvand |execution_statet::guard_exec?0!0| |goto_symex::guard?0!0&0#10|))))) #b1))

(check-sat)

(exit)
